39 45 23 20 35 3 
37 61 16 44 67 40 46 5 10 66 26 74 60 21 17 58 31 70 
33 42 27 69 47 11 15 51 59 43 75 54 68 13 
18 50 49 55 1 7 52 
57 9 
63 14 28 36 30 71 73 38 6 8 72 2 56 32 24 
65 62 34 29 19 64 53 41 22 4 48 25 12 

